NAME : D197B
TYPE : PDTSP
DIMENSION : 197
EDGE_WEIGHT_TYPE : EUC_2D
NODE_COORD_SECTION
1 0 0
2 550 1000
3 630 1000
4 700 1000
5 700 1000
6 630 1000
7 550 1000
8 880 1400
9 930 1400
10 960 1400
11 980 1400
12 1000 1400
13 1000 1400
14 1300 1100
15 1300 1100
16 1300 1000
17 1300 1000
18 1500 1000
19 1500 1000
20 1600 1000
21 1600 1100
22 1500 1100
23 1500 1100
24 1600 1100
25 1600 1100
26 1600 1200
27 1500 1200
28 1500 1200
29 1400 1200
30 1500 1200
31 1400 1200
32 1400 1200
33 1500 1200
34 1500 1200
35 1600 1300
36 1500 1300
37 1400 1300
38 1400 1300
39 1500 1300
40 1200 1100
41 1200 1200
42 1300 1300
43 1300 1300
44 1300 1300
45 1400 1300
46 1500 1300
47 1500 1300
48 1600 1300
49 1700 1300
50 1600 1300
51 1600 1300
52 1500 1300
53 1500 1300
54 1400 1300
55 1300 1300
56 1300 1300
57 1200 1300
58 1200 1400
59 1300 1400
60 1300 1400
61 1400 1400
62 1500 1400
63 1700 1400
64 1600 1400
65 1500 1400
66 1400 1400
67 1300 1400
68 1300 1400
69 1200 1400
70 1400 1400
71 1200 1400
72 1300 1400
73 1300 1400
74 1400 1400
75 1500 1400
76 1600 1400
77 1600 1400
78 1600 1400
79 1700 1400
80 1700 1400
81 1500 1400
82 1400 1400
83 1400 1400
84 1300 1400
85 1300 1400
86 1200 1500
87 1300 1500
88 1400 1500
89 1500 1500
90 1500 1500
91 1700 1500
92 1700 1500
93 1600 1500
94 1600 1500
95 1600 1500
96 1500 1500
97 1400 1500
98 1400 1500
99 1300 1500
100 1300 1500
101 1600 1500
102 1600 1500
103 1700 1500
104 1700 1500
105 1700 1500
106 1800 1500
107 1800 1500
108 1900 1500
109 1900 1600
110 1900 1600
111 1900 1600
112 1800 1600
113 1800 1600
114 1800 1600
115 1800 1700
116 1800 1700
117 1800 1700
118 1900 1700
119 1900 1700
120 1900 1700
121 1800 1700
122 1800 1700
123 1900 1700
124 2000 1700
125 2100 1700
126 2100 1700
127 2200 1700
128 2200 1700
129 2200 1800
130 2100 1800
131 2100 1800
132 2100 1800
133 2100 1800
134 2100 1800
135 2100 1800
136 2200 1800
137 2200 1800
138 2000 1800
139 1900 1800
140 2100 1900
141 2100 1900
142 2100 1900
143 2100 1900
144 2200 1900
145 2200 1900
146 2100 1900
147 2100 1900
148 2100 1900
149 2100 1900
150 2200 1900
151 2200 1900
152 2100 2000
153 2100 2000
154 1800 2000
155 1800 2000
156 1800 2000
157 1900 2000
158 1900 2000
159 1900 2000
160 2100 2000
161 2100 2000
162 2100 2000
163 2300 2000
164 2300 2000
165 2400 2000
166 2400 2000
167 2000 1400
168 2200 1400
169 2100 1700
170 2200 1700
171 2400 1700
172 2400 1800
173 3700 1000
174 3700 1000
175 3700 1100
176 3700 1100
177 3800 1100
178 3900 1100
179 3800 1200
180 3700 1200
181 3600 1200
182 3700 1200
183 3800 1200
184 3900 1200
185 4000 1300
186 4000 1300
187 3700 1300
188 3700 1300
189 3700 1400
190 3700 1400
191 4000 1400
192 4000 1400
193 3900 1100
194 4000 1100
195 4000 1100
196 4000 1000
197 4000 1000
PICKUP_AND_DELIVERY_SECTION
1 0 0 0 0 0 0
2 0 0 0 0 12 0
3 0 0 0 0 137 0
4 0 0 0 0 130 0
5 0 0 0 0 10 0
6 0 0 0 0 0 97
7 0 0 0 0 15 0
8 0 0 0 0 86 0
9 0 0 0 0 42 0
10 0 0 0 0 0 5
11 0 0 0 0 69 0
12 0 0 0 0 0 2
13 0 0 0 0 71 0
14 0 0 0 0 0 20
15 0 0 0 0 0 7
16 0 0 0 0 19 0
17 0 0 0 0 0 51
18 0 0 0 0 40 0
19 0 0 0 0 0 16
20 0 0 0 0 14 0
21 0 0 0 0 79 0
22 0 0 0 0 30 0
23 0 0 0 0 24 0
24 0 0 0 0 0 23
25 0 0 0 0 27 0
26 0 0 0 0 39 0
27 0 0 0 0 0 25
28 0 0 0 0 49 0
29 0 0 0 0 37 0
30 0 0 0 0 0 22
31 0 0 0 0 36 0
32 0 0 0 0 0 46
33 0 0 0 0 0 70
34 0 0 0 0 0 52
35 0 0 0 0 0 78
36 0 0 0 0 0 31
37 0 0 0 0 0 29
38 0 0 0 0 0 57
39 0 0 0 0 0 26
40 0 0 0 0 0 18
41 0 0 0 0 58 0
42 0 0 0 0 0 9
43 0 0 0 0 73 0
44 0 0 0 0 45 0
45 0 0 0 0 0 44
46 0 0 0 0 32 0
47 0 0 0 0 0 50
48 0 0 0 0 64 0
49 0 0 0 0 0 28
50 0 0 0 0 47 0
51 0 0 0 0 17 0
52 0 0 0 0 34 0
53 0 0 0 0 0 54
54 0 0 0 0 53 0
55 0 0 0 0 66 0
56 0 0 0 0 60 0
57 0 0 0 0 38 0
58 0 0 0 0 0 41
59 0 0 0 0 0 67
60 0 0 0 0 0 56
61 0 0 0 0 0 99
62 0 0 0 0 0 90
63 0 0 0 0 95 0
64 0 0 0 0 0 48
65 0 0 0 0 77 0
66 0 0 0 0 0 55
67 0 0 0 0 59 0
68 0 0 0 0 0 74
69 0 0 0 0 0 11
70 0 0 0 0 33 0
71 0 0 0 0 0 13
72 0 0 0 0 81 0
73 0 0 0 0 0 43
74 0 0 0 0 68 0
75 0 0 0 0 0 98
76 0 0 0 0 0 94
77 0 0 0 0 0 65
78 0 0 0 0 35 0
79 0 0 0 0 0 21
80 0 0 0 0 0 116
81 0 0 0 0 0 72
82 0 0 0 0 115 0
83 0 0 0 0 0 85
84 0 0 0 0 0 100
85 0 0 0 0 83 0
86 0 0 0 0 0 8
87 0 0 0 0 103 0
88 0 0 0 0 89 0
89 0 0 0 0 0 88
90 0 0 0 0 62 0
91 0 0 0 0 0 102
92 0 0 0 0 0 105
93 0 0 0 0 0 106
94 0 0 0 0 76 0
95 0 0 0 0 0 63
96 0 0 0 0 101 0
97 0 0 0 0 6 0
98 0 0 0 0 75 0
99 0 0 0 0 61 0
100 0 0 0 0 84 0
101 0 0 0 0 0 96
102 0 0 0 0 91 0
103 0 0 0 0 0 87
104 0 0 0 0 0 113
105 0 0 0 0 92 0
106 0 0 0 0 93 0
107 0 0 0 0 109 0
108 0 0 0 0 0 112
109 0 0 0 0 0 107
110 0 0 0 0 118 0
111 0 0 0 0 0 167
112 0 0 0 0 108 0
113 0 0 0 0 104 0
114 0 0 0 0 0 122
115 0 0 0 0 0 82
116 0 0 0 0 80 0
117 0 0 0 0 0 121
118 0 0 0 0 0 110
119 0 0 0 0 0 124
120 0 0 0 0 127 0
121 0 0 0 0 117 0
122 0 0 0 0 114 0
123 0 0 0 0 138 0
124 0 0 0 0 119 0
125 0 0 0 0 0 197
126 0 0 0 0 132 0
127 0 0 0 0 0 120
128 0 0 0 0 145 0
129 0 0 0 0 0 169
130 0 0 0 0 0 4
131 0 0 0 0 133 0
132 0 0 0 0 0 126
133 0 0 0 0 0 131
134 0 0 0 0 0 165
135 0 0 0 0 0 158
136 0 0 0 0 141 0
137 0 0 0 0 0 3
138 0 0 0 0 0 123
139 0 0 0 0 0 155
140 0 0 0 0 143 0
141 0 0 0 0 0 136
142 0 0 0 0 0 157
143 0 0 0 0 0 140
144 0 0 0 0 0 170
145 0 0 0 0 0 128
146 0 0 0 0 0 150
147 0 0 0 0 0 153
148 0 0 0 0 163 0
149 0 0 0 0 0 152
150 0 0 0 0 146 0
151 0 0 0 0 164 0
152 0 0 0 0 149 0
153 0 0 0 0 147 0
154 0 0 0 0 156 0
155 0 0 0 0 139 0
156 0 0 0 0 0 154
157 0 0 0 0 142 0
158 0 0 0 0 135 0
159 0 0 0 0 161 0
160 0 0 0 0 0 162
161 0 0 0 0 0 159
162 0 0 0 0 160 0
163 0 0 0 0 0 148
164 0 0 0 0 0 151
165 0 0 0 0 134 0
166 0 0 0 0 0 188
167 0 0 0 0 111 0
168 0 0 0 0 0 181
169 0 0 0 0 129 0
170 0 0 0 0 144 0
171 0 0 0 0 0 172
172 0 0 0 0 171 0
173 0 0 0 0 0 195
174 0 0 0 0 182 0
175 0 0 0 0 0 193
176 0 0 0 0 178 0
177 0 0 0 0 0 196
178 0 0 0 0 0 176
179 0 0 0 0 0 194
180 0 0 0 0 0 192
181 0 0 0 0 168 0
182 0 0 0 0 0 174
183 0 0 0 0 185 0
184 0 0 0 0 0 190
185 0 0 0 0 0 183
186 0 0 0 0 0 187
187 0 0 0 0 186 0
188 0 0 0 0 166 0
189 0 0 0 0 191 0
190 0 0 0 0 184 0
191 0 0 0 0 0 189
192 0 0 0 0 180 0
193 0 0 0 0 175 0
194 0 0 0 0 179 0
195 0 0 0 0 173 0
196 0 0 0 0 177 0
197 0 0 0 0 125 0
DEPOT_SECTION
1 
-1
EOF
